40	100	100	100
12	87	81
43	88	86
20	76	73
9	69	97
35	86	78
26	70	87
46	81	94
24	99	70
12	92	78
31	74	89
23	95	94
49	70	82
4	95	66
43	74	67
8	77	91
33	69	93
30	87	89
48	84	94
10	85	94
32	94	94
24	78	91
33	66	94
29	78	86
30	92	72
44	98	89
23	95	82
17	97	98
35	75	94
30	68	92
25	83	80
31	78	81
37	92	70
28	99	81
42	88	84
19	80	69
34	82	78
12	98	84
33	86	98
24	76	73
21	66	99
